.Version 8.0.8 of ABINIT

 ABINIT is a project of the Universite Catholique de Louvain,
 Corning Inc. and other collaborators, see ~abinit/doc/developers/contributors.txt .
 Please read ~abinit/doc/users/acknowledgments.html for suggested
 acknowledgments of the ABINIT effort.

.Starting date : Wed 22 Mar 2017.
- ( at 23h44 )

- input  file    -> abinit.in
- output file    -> abinit.out
- root for input  files -> abinit-i
- root for output files -> abinit-o

- inpspheads : Reading pseudopotential header in XML form from ../K.GGA_X_PBE_SOL+GGA_C_PBE_SOL-paw.xml
- inpspheads : Reading pseudopotential header in XML form from ../Co.GGA_X_PBE_SOL+GGA_C_PBE_SOL-paw.xml
- inpspheads : Reading pseudopotential header in XML form from ../F.GGA_X_PBE_SOL+GGA_C_PBE_SOL-paw.xml

 Symmetries : the unit cell is not primitive
     intxc =       0    ionmov =       0      iscf =      17    lmnmax =      18
     lnmax =       6     mgfft =      72  mpssoang =       3    mqgrid =    4920
     natom =      20  nloc_mem =       2    nspden =       2   nspinor =       1
    nsppol =       1      nsym =      32    n1xccc =       1    ntypat =       3
    occopt =       7   xclevel =       2
-    mband =         128        mffmem =           1         mkmem =           1
       mpw =       11392          nfft =      180000          nkpt =           6
Pmy_natom=         4
 PAW method is used; the additional fine FFT grid is defined by:
   mgfftf=       100    nfftf =    518400
  Rough estimation (10% accuracy) of disk space for files :

------------- Echo of variables that govern the present computation ------------
-
- outvars: echo of selected default values
-   iomode0 =  0 , fftalg0 =312 , wfoptalg0 = 10
-
- outvars: echo of global parameters not present in the input file
-  max_nthreads =    0
-
 -outvars: echo values of preprocessed input variables --------
            acell      1.0886698670E+01  1.0886698670E+01  1.5155835667E+01 Bohr
              amu      3.90983000E+01  5.89332000E+01  1.89984032E+01
           diemac      1.20000000E+01
         dmatpawu        0.20445   -0.13777    0.17041    0.22655   -0.25160
                        -0.13777    0.21008    0.03398   -0.38185   -0.00023
                         0.17041    0.03398    0.33093   -0.10207   -0.42521
                         0.22655   -0.38185   -0.10207    0.69907    0.05308
                        -0.25160   -0.00023   -0.42521    0.05308    0.55548
                         1.00000   -0.00000   -0.00000   -0.00000   -0.00000
                        -0.00000    1.00000   -0.00000    0.00000   -0.00000
                        -0.00000   -0.00000    1.00000   -0.00000   -0.00000
                        -0.00000    0.00000   -0.00000    1.00000    0.00000
                        -0.00000   -0.00000   -0.00000    0.00000    1.00000
                         1.00000   -0.00000    0.00000    0.00000    0.00000
                        -0.00000    1.00000    0.00000    0.00000    0.00000
                         0.00000    0.00000    1.00000   -0.00000    0.00000
                         0.00000    0.00000   -0.00000    1.00000    0.00000
                         0.00000    0.00000    0.00000    0.00000    1.00000
                         0.17204    0.09981    0.17686    0.31091   -0.06740
                         0.09981    0.07587    0.17383    0.15788    0.07073
                         0.17686    0.17383    0.46425    0.23048    0.36620
                         0.31091    0.15788    0.23048    0.58997   -0.25922
                        -0.06740    0.07073    0.36620   -0.25922    0.69787
             ecut      2.60000000E+01 Hartree
           ecutsm      5.00000000E-01 Hartree
-          fftalg         312
              ixc     -116133
              kpt      1.25000000E-01  1.25000000E-01  2.50000000E-01
                       3.75000000E-01  1.25000000E-01  2.50000000E-01
                      -3.75000000E-01  1.25000000E-01  2.50000000E-01
                      -1.25000000E-01  1.25000000E-01  2.50000000E-01
                       3.75000000E-01  3.75000000E-01  2.50000000E-01
                      -3.75000000E-01  3.75000000E-01  2.50000000E-01
         kptrlatt        4    0    0      0    4    0      0    0    2
          kptrlen      3.03116713E+01
            lpawu          -1       2      -1
P           mkmem           1
            natom          20
            nband         128
            ngfft          50      50      72
          ngfftdg          72      72     100
             nkpt           6
-           npkpt           8
           nspden           2
            nstep          50
             nsym          32
           ntypat           3
              occ      2.000000  2.000000  2.000000  2.000000  2.000000  2.000000
                       2.000000  2.000000  2.000000  2.000000  2.000000  2.000000
                       2.000000  2.000000  2.000000  2.000000  2.000000  2.000000
                       2.000000  2.000000  2.000000  2.000000  2.000000  2.000000
                       2.000000  2.000000  2.000000  2.000000  2.000000  2.000000
                       2.000000  2.000000  2.000000  2.000000  2.000000  2.000000
                       2.000000  2.000000  2.000000  2.000000  2.000000  2.000000
                       2.000000  2.000000  2.000000  2.000000  2.000000  2.000000
                       2.000000  2.000000  2.000000  2.000000  2.000000  2.000000
                       2.000000  2.000000  2.000000  2.000000  2.000000  2.000000
                       2.000000  2.000000  2.000000  2.000000  2.000000  2.000000
                       2.000000  2.000000  2.000000  2.000000  2.000000  2.000000
                       2.000000  2.000000  2.000000  2.000000  2.000000  2.000000
                       2.000000  2.000000  2.000000  2.000000  2.000000  2.000000
                       2.000000  2.000000  2.000000  2.000000  2.000000  2.000000
                       2.000000  2.000000  2.000000  2.000000  0.000000  0.000000
                       0.000000  0.000000  0.000000  0.000000  0.000000  0.000000
                       0.000000  0.000000  0.000000  0.000000  0.000000  0.000000
                       0.000000  0.000000  0.000000  0.000000  0.000000  0.000000
                       0.000000  0.000000  0.000000  0.000000  0.000000  0.000000
                       0.000000  0.000000  0.000000  0.000000  0.000000  0.000000
                       0.000000  0.000000
                       2.000000  2.000000  2.000000  2.000000  2.000000  2.000000
                       2.000000  2.000000  2.000000  2.000000  2.000000  2.000000
                       2.000000  2.000000  2.000000  2.000000  2.000000  2.000000
                       2.000000  2.000000  2.000000  2.000000  2.000000  2.000000
                       2.000000  2.000000  2.000000  2.000000  2.000000  2.000000
                       2.000000  2.000000  2.000000  2.000000  2.000000  2.000000
                       2.000000  2.000000  2.000000  2.000000  2.000000  2.000000
                       2.000000  2.000000  2.000000  2.000000  2.000000  2.000000
                       2.000000  2.000000  2.000000  2.000000  2.000000  2.000000
                       2.000000  2.000000  2.000000  2.000000  2.000000  2.000000
                       2.000000  2.000000  2.000000  2.000000  2.000000  2.000000
                       2.000000  2.000000  2.000000  2.000000  2.000000  2.000000
                       2.000000  2.000000  2.000000  2.000000  2.000000  2.000000
                       2.000000  2.000000  2.000000  2.000000  2.000000  2.000000
                       2.000000  2.000000  2.000000  2.000000  2.000000  2.000000
                       2.000000  2.000000  2.000000  2.000000  0.000000  0.000000
                       0.000000  0.000000  0.000000  0.000000  0.000000  0.000000
                       0.000000  0.000000  0.000000  0.000000  0.000000  0.000000
                       0.000000  0.000000  0.000000  0.000000  0.000000  0.000000
                       0.000000  0.000000  0.000000  0.000000  0.000000  0.000000
                       0.000000  0.000000  0.000000  0.000000  0.000000  0.000000
                       0.000000  0.000000
                       2.000000  2.000000  2.000000  2.000000  2.000000  2.000000
                       2.000000  2.000000  2.000000  2.000000  2.000000  2.000000
                       2.000000  2.000000  2.000000  2.000000  2.000000  2.000000
                       2.000000  2.000000  2.000000  2.000000  2.000000  2.000000
                       2.000000  2.000000  2.000000  2.000000  2.000000  2.000000
                       2.000000  2.000000  2.000000  2.000000  2.000000  2.000000
                       2.000000  2.000000  2.000000  2.000000  2.000000  2.000000
                       2.000000  2.000000  2.000000  2.000000  2.000000  2.000000
                       2.000000  2.000000  2.000000  2.000000  2.000000  2.000000
                       2.000000  2.000000  2.000000  2.000000  2.000000  2.000000
                       2.000000  2.000000  2.000000  2.000000  2.000000  2.000000
                       2.000000  2.000000  2.000000  2.000000  2.000000  2.000000
                       2.000000  2.000000  2.000000  2.000000  2.000000  2.000000
                       2.000000  2.000000  2.000000  2.000000  2.000000  2.000000
                       2.000000  2.000000  2.000000  2.000000  2.000000  2.000000
                       2.000000  2.000000  2.000000  2.000000  0.000000  0.000000
                       0.000000  0.000000  0.000000  0.000000  0.000000  0.000000
[...]
                       2.000000  2.000000  2.000000  2.000000  2.000000  2.000000
                       2.000000  2.000000  2.000000  2.000000  2.000000  2.000000
                       2.000000  2.000000  2.000000  2.000000  2.000000  2.000000
                       2.000000  2.000000  2.000000  2.000000  2.000000  2.000000
                       2.000000  2.000000  2.000000  2.000000  2.000000  2.000000
                       2.000000  2.000000  2.000000  2.000000  2.000000  2.000000
                       2.000000  2.000000  2.000000  2.000000  2.000000  2.000000
                       2.000000  2.000000  2.000000  2.000000  2.000000  2.000000
                       2.000000  2.000000  2.000000  2.000000  0.000000  0.000000
                       0.000000  0.000000  0.000000  0.000000  0.000000  0.000000
                       0.000000  0.000000  0.000000  0.000000  0.000000  0.000000
                       0.000000  0.000000  0.000000  0.000000  0.000000  0.000000
                       0.000000  0.000000  0.000000  0.000000  0.000000  0.000000
                       0.000000  0.000000  0.000000  0.000000  0.000000  0.000000
                       0.000000  0.000000
           occopt           7
        pawecutdg      5.20000000E+01 Hartree
           shiftk      5.00000000E-01  5.00000000E-01  5.00000000E-01
           spinat      0.0000000000E+00  0.0000000000E+00  0.0000000000E+00
                       0.0000000000E+00  0.0000000000E+00  0.0000000000E+00
                       0.0000000000E+00  0.0000000000E+00  0.0000000000E+00
[...]
         kptrlatt        4    0    0      0    4    0      0    0    2
          kptrlen      3.03116713E+01
            lpawu          -1       2      -1
P           mkmem           1
            natom          20
            nband         128
            ngfft          50      50      72
          ngfftdg          72      72     100
             nkpt           6
-           npkpt           8
           nspden           2
            nstep          50
             nsym          32
           ntypat           3
              occ      2.000000  2.000000  2.000000  2.000000  2.000000  2.000000
                       2.000000  2.000000  2.000000  2.000000  2.000000  2.000000
                       2.000000  2.000000  2.000000  2.000000  2.000000  2.000000
                       2.000000  2.000000  2.000000  2.000000  2.000000  2.000000
                       2.000000  2.000000  2.000000  2.000000  2.000000  2.000000
                       2.000000  2.000000  2.000000  2.000000  2.000000  2.000000
                       2.000000  2.000000  2.000000  2.000000  2.000000  2.000000
                       2.000000  2.000000  2.000000  2.000000  2.000000  2.000000
                       2.000000  2.000000  2.000000  2.000000  2.000000  2.000000
                       2.000000  2.000000  2.000000  2.000000  2.000000  2.000000
                       2.000000  2.000000  2.000000  2.000000  2.000000  2.000000
                       2.000000  2.000000  2.000000  2.000000  2.000000  2.000000
                       2.000000  2.000000  2.000000  2.000000  2.000000  2.000000
                       2.000000  2.000000  2.000000  2.000000  2.000000  2.000000
                       2.000000  2.000000  2.000000  2.000000  2.000000  2.000000
                       2.000000  2.000000  2.000000  2.000000  0.000000  0.000000
                       0.000000  0.000000  0.000000  0.000000  0.000000  0.000000
                       0.000000  0.000000  0.000000  0.000000  0.000000  0.000000
                       0.000000  0.000000  0.000000  0.000000  0.000000  0.000000
                       0.000000  0.000000  0.000000  0.000000  0.000000  0.000000
                       0.000000  0.000000  0.000000  0.000000  0.000000  0.000000
                       0.000000  0.000000
                       2.000000  2.000000  2.000000  2.000000  2.000000  2.000000
                       2.000000  2.000000  2.000000  2.000000  2.000000  2.000000
                       2.000000  2.000000  2.000000  2.000000  2.000000  2.000000
                       2.000000  2.000000  2.000000  2.000000  2.000000  2.000000
                       2.000000  2.000000  2.000000  2.000000  2.000000  2.000000
                       2.000000  2.000000  2.000000  2.000000  2.000000  2.000000
                       2.000000  2.000000  2.000000  2.000000  2.000000  2.000000
                       2.000000  2.000000  2.000000  2.000000  2.000000  2.000000
                       2.000000  2.000000  2.000000  2.000000  2.000000  2.000000
                       2.000000  2.000000  2.000000  2.000000  2.000000  2.000000
                       2.000000  2.000000  2.000000  2.000000  2.000000  2.000000
                       2.000000  2.000000  2.000000  2.000000  2.000000  2.000000
                       2.000000  2.000000  2.000000  2.000000  2.000000  2.000000
                       2.000000  2.000000  2.000000  2.000000  2.000000  2.000000
                       2.000000  2.000000  2.000000  2.000000  2.000000  2.000000
                       2.000000  2.000000  2.000000  2.000000  0.000000  0.000000
                       0.000000  0.000000  0.000000  0.000000  0.000000  0.000000
                       0.000000  0.000000  0.000000  0.000000  0.000000  0.000000
                       0.000000  0.000000  0.000000  0.000000  0.000000  0.000000
                       0.000000  0.000000  0.000000  0.000000  0.000000  0.000000
                       0.000000  0.000000  0.000000  0.000000  0.000000  0.000000
                       0.000000  0.000000
                       2.000000  2.000000  2.000000  2.000000  2.000000  2.000000
                       2.000000  2.000000  2.000000  2.000000  2.000000  2.000000
                       2.000000  2.000000  2.000000  2.000000  2.000000  2.000000
                       2.000000  2.000000  2.000000  2.000000  2.000000  2.000000
                       2.000000  2.000000  2.000000  2.000000  2.000000  2.000000
                       2.000000  2.000000  2.000000  2.000000  2.000000  2.000000
                       2.000000  2.000000  2.000000  2.000000  2.000000  2.000000
                       2.000000  2.000000  2.000000  2.000000  2.000000  2.000000
                       2.000000  2.000000  2.000000  2.000000  2.000000  2.000000
                       2.000000  2.000000  2.000000  2.000000  2.000000  2.000000
                       2.000000  2.000000  2.000000  2.000000  2.000000  2.000000
                       2.000000  2.000000  2.000000  2.000000  2.000000  2.000000
                       2.000000  2.000000  2.000000  2.000000  2.000000  2.000000
                       2.000000  2.000000  2.000000  2.000000  2.000000  2.000000
                       2.000000  2.000000  2.000000  2.000000  2.000000  2.000000
                       2.000000  2.000000  2.000000  2.000000  0.000000  0.000000
                       0.000000  0.000000  0.000000  0.000000  0.000000  0.000000
[...]
                       2.000000  2.000000  2.000000  2.000000  2.000000  2.000000
                       2.000000  2.000000  2.000000  2.000000  2.000000  2.000000
                       2.000000  2.000000  2.000000  2.000000  2.000000  2.000000
                       2.000000  2.000000  2.000000  2.000000  2.000000  2.000000
                       2.000000  2.000000  2.000000  2.000000  2.000000  2.000000
                       2.000000  2.000000  2.000000  2.000000  2.000000  2.000000
                       2.000000  2.000000  2.000000  2.000000  2.000000  2.000000
                       2.000000  2.000000  2.000000  2.000000  2.000000  2.000000
                       2.000000  2.000000  2.000000  2.000000  0.000000  0.000000
                       0.000000  0.000000  0.000000  0.000000  0.000000  0.000000
                       0.000000  0.000000  0.000000  0.000000  0.000000  0.000000
                       0.000000  0.000000  0.000000  0.000000  0.000000  0.000000
                       0.000000  0.000000  0.000000  0.000000  0.000000  0.000000
                       0.000000  0.000000  0.000000  0.000000  0.000000  0.000000
                       0.000000  0.000000
           occopt           7
        pawecutdg      5.20000000E+01 Hartree
           shiftk      5.00000000E-01  5.00000000E-01  5.00000000E-01
           spinat      0.0000000000E+00  0.0000000000E+00  0.0000000000E+00
                       0.0000000000E+00  0.0000000000E+00  0.0000000000E+00
                       0.0000000000E+00  0.0000000000E+00  0.0000000000E+00
                       0.0000000000E+00  0.0000000000E+00  0.0000000000E+00
                       0.0000000000E+00  0.0000000000E+00 -4.0000000000E+00
                       0.0000000000E+00  0.0000000000E+00  4.0000000000E+00
                       0.0000000000E+00  0.0000000000E+00  4.0000000000E+00
                       0.0000000000E+00  0.0000000000E+00 -4.0000000000E+00
                       0.0000000000E+00  0.0000000000E+00  0.0000000000E+00
                       0.0000000000E+00  0.0000000000E+00  0.0000000000E+00
                       0.0000000000E+00  0.0000000000E+00  0.0000000000E+00
                       0.0000000000E+00  0.0000000000E+00  0.0000000000E+00
                       0.0000000000E+00  0.0000000000E+00  0.0000000000E+00
                       0.0000000000E+00  0.0000000000E+00  0.0000000000E+00
                       0.0000000000E+00  0.0000000000E+00  0.0000000000E+00
                       0.0000000000E+00  0.0000000000E+00  0.0000000000E+00
                       0.0000000000E+00  0.0000000000E+00  0.0000000000E+00
                       0.0000000000E+00  0.0000000000E+00  0.0000000000E+00
                       0.0000000000E+00  0.0000000000E+00  0.0000000000E+00
                       0.0000000000E+00  0.0000000000E+00  0.0000000000E+00
           strten     -9.3997567176E-06 -9.3997567176E-06  1.0001321869E-05
                       0.0000000000E+00  0.0000000000E+00  0.0000000000E+00
           symafm        1    1    1    1   -1   -1   -1   -1    1    1
                         1    1   -1   -1   -1   -1    1    1    1    1
                        -1   -1   -1   -1    1    1    1    1   -1   -1
                        -1   -1
           symrel      1  0  0   0  1  0   0  0  1       1  0  0   0  1  0   0  0  1
                      -1  0  0   0 -1  0   0  0 -1      -1  0  0   0 -1  0   0  0 -1
                      -1  0  0   0  1  0   0  0 -1      -1  0  0   0  1  0   0  0 -1
                       1  0  0   0 -1  0   0  0  1       1  0  0   0 -1  0   0  0  1
                      -1  0  0   0 -1  0   0  0  1      -1  0  0   0 -1  0   0  0  1
                       1  0  0   0  1  0   0  0 -1       1  0  0   0  1  0   0  0 -1
                       1  0  0   0 -1  0   0  0 -1       1  0  0   0 -1  0   0  0 -1
                      -1  0  0   0  1  0   0  0  1      -1  0  0   0  1  0   0  0  1
                       0  1  0   1  0  0   0  0  1       0  1  0   1  0  0   0  0  1
                       0 -1  0  -1  0  0   0  0 -1       0 -1  0  -1  0  0   0  0 -1
                       0 -1  0   1  0  0   0  0 -1       0 -1  0   1  0  0   0  0 -1
                       0  1  0  -1  0  0   0  0  1       0  1  0  -1  0  0   0  0  1
                       0 -1  0  -1  0  0   0  0  1       0 -1  0  -1  0  0   0  0  1
                       0  1  0   1  0  0   0  0 -1       0  1  0   1  0  0   0  0 -1
                       0  1  0  -1  0  0   0  0 -1       0  1  0  -1  0  0   0  0 -1
                       0 -1  0   1  0  0   0  0  1       0 -1  0   1  0  0   0  0  1
            tnons      0.0000000  0.0000000  0.0000000     0.5000000  0.5000000  0.5000000
                      -0.0000000 -0.0000000  0.5000000     0.5000000  0.5000000  0.0000000
                       0.5000000  0.5000000  0.5000000    -0.0000000 -0.0000000  0.0000000
                       0.5000000  0.5000000  0.0000000     0.0000000 -0.0000000  0.5000000
                      -0.0000000 -0.0000000  0.0000000     0.5000000  0.5000000  0.5000000
                       0.0000000  0.0000000  0.5000000     0.5000000  0.5000000  0.0000000
                       0.5000000  0.5000000  0.5000000     0.0000000 -0.0000000  0.0000000
                       0.5000000  0.5000000  0.0000000    -0.0000000 -0.0000000  0.5000000
                       0.5000000  0.5000000  0.0000000     0.0000000  0.0000000  0.5000000
                       0.5000000  0.5000000  0.5000000     0.0000000 -0.0000000  0.0000000
                       0.0000000 -0.0000000  0.5000000     0.5000000  0.5000000  0.0000000
                       0.0000000  0.0000000  0.0000000     0.5000000  0.5000000  0.5000000
                       0.5000000  0.5000000  0.0000000     0.0000000 -0.0000000  0.5000000
                       0.5000000  0.5000000  0.5000000     0.0000000  0.0000000  0.0000000
                       0.0000000  0.0000000  0.5000000     0.5000000  0.5000000  0.0000000
                       0.0000000 -0.0000000  0.0000000     0.5000000  0.5000000  0.5000000
           tolvrs      1.00000000E-14
           tsmear      1.00000000E-03 Hartree
            typat      1  1  1  1  2  2  2  2  3  3  3  3  3  3  3  3  3  3  3  3
            upawu      0.00000000E+00  1.46997302E-01  0.00000000E+00 Hartree
        usedmatpu          25
          usepawu           1
           useylm           1
              wtk        0.12500    0.25000    0.25000    0.12500    0.12500    0.12500
           xangst      2.0339865700E-20 -1.9352939087E-20 -2.5194539416E-32
                       2.8804964065E+00  2.8804964065E+00  7.3973205348E-32
                       2.0339865700E-20 -1.9352939087E-20  4.0100614061E+00
                       2.8804964065E+00  2.8804964065E+00  4.0100614061E+00
                       2.8804964065E+00 -1.9352939087E-20  2.0050307030E+00
                       2.0339865700E-20  2.8804964065E+00  2.0050307030E+00
                       2.8804964065E+00 -1.9352939087E-20  6.0150921091E+00
                       2.0339865700E-20  2.8804964065E+00  6.0150921091E+00
                       2.8804964065E+00 -1.9352939087E-20  2.4389332966E-32
                       2.0339865700E-20  2.8804964065E+00  2.4389332966E-32
                       2.8804964065E+00 -1.9352939087E-20  4.0100614061E+00
                       2.0339865700E-20  2.8804964065E+00  4.0100614061E+00
                       1.4737775959E+00  1.4067188106E+00  2.0050307030E+00
                       4.3542740024E+00  1.4737775959E+00  2.0050307030E+00
                       4.2872152170E+00  4.3542740024E+00  2.0050307030E+00
                       1.4067188106E+00  4.2872152170E+00  2.0050307030E+00
                       1.4067188106E+00  1.4737775959E+00  6.0150921091E+00
                       4.2872152170E+00  1.4067188106E+00  6.0150921091E+00
                       4.3542740024E+00  4.2872152170E+00  6.0150921091E+00
                       1.4737775959E+00  4.3542740024E+00  6.0150921091E+00
            xcart      3.8436775753E-20 -3.6571754740E-20 -4.7610779540E-32
                       5.4433493350E+00  5.4433493350E+00  1.3978909928E-31
                       3.8436775753E-20 -3.6571754740E-20  7.5779178335E+00
                       5.4433493350E+00  5.4433493350E+00  7.5779178335E+00
                       5.4433493350E+00 -3.6571754740E-20  3.7889589167E+00
                       3.8436775753E-20  5.4433493350E+00  3.7889589167E+00
                       5.4433493350E+00 -3.6571754741E-20  1.1366876750E+01
                       3.8436775753E-20  5.4433493350E+00  1.1366876750E+01
                       5.4433493350E+00 -3.6571754740E-20  4.6089159869E-32
                       3.8436775753E-20  5.4433493350E+00  4.6089159869E-32
                       5.4433493350E+00 -3.6571754740E-20  7.5779178335E+00
                       3.8436775753E-20  5.4433493350E+00  7.5779178335E+00
                       2.7850360371E+00  2.6583132979E+00  3.7889589167E+00
                       8.2283853721E+00  2.7850360371E+00  3.7889589167E+00
                       8.1016626329E+00  8.2283853721E+00  3.7889589167E+00
                       2.6583132979E+00  8.1016626329E+00  3.7889589167E+00
                       2.6583132979E+00  2.7850360371E+00  1.1366876750E+01
                       8.1016626329E+00  2.6583132979E+00  1.1366876750E+01
                       8.2283853721E+00  8.1016626329E+00  1.1366876750E+01
                       2.7850360371E+00  8.2283853721E+00  1.1366876750E+01
             xred      3.5306181349E-21 -3.3593062368E-21 -3.1414156623E-33
                       5.0000000000E-01  5.0000000000E-01  9.2234504484E-33
                       3.5306181349E-21 -3.3593062368E-21  5.0000000000E-01
                       5.0000000000E-01  5.0000000000E-01  5.0000000000E-01
                       5.0000000000E-01 -3.3593062368E-21  2.5000000000E-01
                       3.5306181349E-21  5.0000000000E-01  2.5000000000E-01
                       5.0000000000E-01 -3.3593062369E-21  7.5000000000E-01
                       3.5306181349E-21  5.0000000000E-01  7.5000000000E-01
                       5.0000000000E-01 -3.3593062368E-21  3.0410173930E-33
                       3.5306181349E-21  5.0000000000E-01  3.0410173930E-33
                       5.0000000000E-01 -3.3593062368E-21  5.0000000000E-01
                       3.5306181349E-21  5.0000000000E-01  5.0000000000E-01
                       2.5582007195E-01  2.4417992805E-01  2.5000000000E-01
                       7.5582007195E-01  2.5582007195E-01  2.5000000000E-01
                       7.4417992805E-01  7.5582007195E-01  2.5000000000E-01
                       2.4417992805E-01  7.4417992805E-01  2.5000000000E-01
                       2.4417992805E-01  2.5582007195E-01  7.5000000000E-01
                       7.4417992805E-01  2.4417992805E-01  7.5000000000E-01
                       7.5582007195E-01  7.4417992805E-01  7.5000000000E-01
                       2.5582007195E-01  7.5582007195E-01  7.5000000000E-01
            znucl       19.00000   27.00000    9.00000

- Timing analysis has been suppressed with timopt=0

 Suggested references for the acknowledgment of ABINIT usage.

 Calculation completed.
.Delivered   1 WARNINGs and   0 COMMENTs to log file.